(set-option :produce-models true)
(set-logic ALL)
(declare-const GEN1 (_ BitVec 4))
(declare-const BAV2 Bool)
(declare-const x (_ BitVec 4))
(assert (= x GEN1))
(assert (= BAV2 (= x GEN1)))
(check-sat)
(get-value (x))